150
65 128 25 123 117 64 3 118 142 55 138 96 74 18 52 133 136 78 105 89 48 5 62 46 130 92 27 129 0 91 7 41 121 79 30 88 137 132 147 141 104 66 107 57 60 80 24 124 50 86 144 139 134 84 67 72 68 63 39 53 1 143 113 43 49 115 81 125 94 12 75 32 145 102 146 36 4 51 77 95 38 100 120 29 106 111 131 28 45 2 13 47 99 70 40 135 127 42 122 114 119 148 54 82 33 116 8 6 56 19 11 26 85 34 149 61 59 76 109 22 97 90 44 108 31 10 14 16 140 58 126 73 20 71 112 9 83 35 98 101 110 103 37 23 17 93 87 15 21 69 
